50	519684

6787 6789
7885 7887
625 627
9000 9000
2631 2631
990 990
1778 1779
3194 3195
6271 6273
9483 9483
8161 8163
9952 9954
874 876
5689 5691
6234 6234
4940 4941
6560 6561
1352 1353
438 438
9526 9528
8971 8973
3075 3075
4005 4005
8515 8517
275 276
4279 4281
7232 7233
397 399
7133 7134
463 465
8492 8493
532 534
4219 4221
4320 4320
3734 3735
8449 8451
8663 8664
8641 8643
1958 1959
3327 3327
8962 8964
5894 5895
9794 9795
9728 9729
4308 4308
2371 2373
3839 3840
4175 4176
4799 4800
6922 6924
